max_width = 36;
n_blocks = 23;
width = [12, 3, 4, 5, 3, 5, 3, 3, 4, 3, 3, 3, 3, 3, 3, 3, 5, 3, 3, 5, 3, 4, 3];
height = [36, 36, 22, 15, 24, 14, 16, 15, 11, 14, 12, 11, 10, 9, 8, 7, 4, 6, 5, 3, 4, 3, 3];
